32	0

0	6	2	5	4	6	3	9
1	3	7	8	10
1	3	7	8	10
2	1	8
1	3	7	8	10
8	4	11	12	13	15
8	3	11	12	13
5	6	11	12	13	14	15	16
7	6	11	12	13	14	15	16
6	6	11	12	13	14	15	16
1	3	17	19	20
6	1	17
1	3	17	19	20
3	3	17	19	20
7	1	17
3	3	17	19	20
1	2	18	21
5	4	22	23	24	25
10	3	21	24	25
10	3	21	24	25
3	2	22	23
3	2	26	29
1	2	26	29
10	1	31
8	2	27	30
3	2	27	30
1	1	28
1	1	31
7	1	32
6	1	32
1	1	32
0	0
